NAME : problems/40-tsp/instance-16.tsp
COMMENT : No Comment
TYPE : TSP
DIMENSION: 40
EDGE_WEIGHT_TYPE : EUC_2D
NODE_COORD_SECTION
1 9039 2924 
2 8850 6115 
3 7154 2530 
4 8363 6377 
5 4926 7895 
6 6215 120 
7 8427 4758 
8 7684 2298 
9 1826 3917 
10 1692 1025 
11 7869 1901 
12 2168 1886 
13 1553 3815 
14 2942 6173 
15 5584 1110 
16 2956 8081 
17 174 8064 
18 6231 1274 
19 3880 8709 
20 9192 3354 
21 300 4559 
22 9170 2838 
23 3033 3019 
24 2269 3849 
25 8963 7893 
26 9226 2389 
27 2601 8081 
28 1433 2806 
29 7245 1131 
30 7344 5297 
31 5226 6696 
32 377 8439 
33 6049 8300 
34 8872 7212 
35 3990 3468 
36 2338 4715 
37 5828 4859 
38 3502 5678 
39 1833 5368 
40 8026 5644 
EOF
